



























































































70 9 37 22 76 
25 32 36 47 17 
84 8 26 13 0 
5 69 110 54 105 93 
94 96 6 20 
39 56 21 55 68 
103 48 104 51 16 
81 87 1 43 107 
2 88 58 91 45 
62 102 50 82 10 
57 46 109 40 66 
15 113 4 99 74 79 
83 108 71 3 42 
19 33 23 53 92 
59 77 7 90 30 106 
41 11 35 44 27 85 
31 64 28 61 67 
114 80 12 100 72 
38 52 86 24 97 
78 65 112 34 111 
49 98 95 29 18 
14 63 
75 101 73 60 89 
